11
-1 38 29 80 73 48 28 10 43 47 65
27 -1 17 14 16 23 22 17 49 91 16
24 8 -1 34 54 22 16 73 56 66 27
28 43 89 -1 86 94 99 76 88 90 18
51 11 95 83 -1 63 30 37 70 38 73
80 92 67 21 62 -1 79 8 12 96 32
64 69 44 22 18 7 -1 40 79 99 8
72 63 31 65 20 23 68 -1 66 26 56
55 91 40 97 17 42 75 4 -1 23 45
33 96 7 47 36 23 20 78 20 -1 78
87 48 42 90 29 82 18 58 30 87 -1
